c --- [ banner ] -------------------------------------------------------------
c 
c CaDiCaL Radically Simplified CDCL SAT Solver
c Copyright (c) 2016-2021 A. Biere, M. Fleury, N. Froleyks
c 
c Version 1.5.2 9c38a080b32c28d805e8e6ca21849856b0cda605
c g++ (Ubuntu 7.5.0-3ubuntu1~18.04) 7.5.0 -Wall -Wextra -O3 -DNDEBUG
c Wed Feb 16 23:15:36 EST 2022 Linux fac-vanhoeve01 5.4.0-99-generic x86_64
c 
c --- [ limit ] --------------------------------------------------------------
c 
c setting time limit to 600 seconds real time (due to '-t 600')
c setting conflict limit to 1000000000 conflicts (due to '1000000000')
c 
c --- [ parsing input ] ------------------------------------------------------
c 
c reading DIMACS file from 'ddfwcnfs/queen11_11.col_11.cnf'
c opening file to read 'ddfwcnfs/queen11_11.col_11.cnf'
c found 'p cnf 1331 18986' header
c parsed 18986 clauses in 0.01 seconds process time
c closing file 'ddfwcnfs/queen11_11.col_11.cnf'
c after reading 233396 bytes 0.2 MB
c 
c --- [ options ] ------------------------------------------------------------
c 
c all options are set to their default value
c 
c --- [ solving ] ------------------------------------------------------------
c 
c time measured in process time since initialization
c 
c  seconds  reductions  redundant  irredundant
c         MB    restarts       trail     variables
c          level   conflicts       glue       remaining
c 
c *  0.01  5  0 0   0    0    0  0% 0 18865 1210 91%
c {  0.01  5  0 0   0    0    0  0% 0 18865 1210 91%
c -  0.02  6  9 1   0  300  122 32% 7 18865 1210 91%
c -  0.04  6 10 2  56  900  418 31% 8 18865 1210 91%
c }  0.04  6 10 2  56 1002  471 31% 8 18865 1210 91%
c [  0.04  6  0 2  56 1002  471  0% 0 18865 1210 91%
c O  0.04  6  6 2  56 1003  472 31% 6 18865 1210 91%
c -  0.07  6 12 3  56 1801  805 31% 9 18865 1210 91%
c -  0.10  6 14 4  57 3001 1105 31% 10 18865 1210 91%
c ]  0.10  6 14 4  57 3002 1106 31% 10 18865 1210 91%
c {  0.10  6 10 4  57 3002 1106 31% 8 18865 1210 91%
c F  0.10  6 10 4  57 3006 1110 32% 8 18865 1210 91%
c -  0.14  6 10 5 153 4501 1257 32% 8 18865 1210 91%
c #  0.19  6 10 5 198 6008 2039 32% 8 18865 1210 91%
c -  0.21  6 10 6 237 6301 1496 33% 8 18865 1210 91%
c }  0.26  6 13 6 365 7002 2084 38% 9 18865 1210 91%
c [  0.26  6 14 6 365 7002 2084 31% 10 18865 1210 91%
c s  0.34  6 45 6 366 7926 2580 47% 14 18865 1210 91%
c e  0.39  7 45 6 366 7926   91 47% 14 12975 880 66%
c s  0.40  7 45 6 366 7926   89 47% 14 12975 880 66%
c 
c  seconds  reductions  redundant   irredundant
c         MB    restarts       trail      variables
c          level   conflicts       glue       remaining
c 
c ^  0.40  7 45 6 366 7926   89 47% 14 12975 880 66%
c -  0.44  7 46 7 366 8402  502 80% 15 12975 880 66%
c I  0.56  7 43 7 367 10012 1935 81% 18 12975 880 66%
c -  0.64  8 52 8 368 10802 2372 79% 25 12975 880 66%
c -  0.92  8 60 9 370 13502 3227 78% 32 12975 880 66%
c ]  1.12  8 61 9 370 15004 4566 78% 34 12975 880 66%
c {  1.12  8 13 9 370 15004 4566 57% 9 12975 880 66%
c B  1.13  8 13 9 372 15013 4575 57% 9 12975 880 66%
c -  1.26  8 16 10 708 16502 3678 58% 11 12975 880 66%
c -  1.65  7 23 11 1537 19803 4093 64% 15 12975 880 66%
c W  1.75  7 22 11 1632 21015 4926 62% 14 12975 880 66%
c -  1.91  8 23 12 1936 23403 3806 61% 15 12975 880 66%
c s  1.93  8 23 12 1950 23455 3691 61% 15 12975 880 66%
c s  1.99  8 23 12 1950 23455 3655 61% 15 12975 880 66%
c ^  2.00  8 23 12 1950 23455 3655 61% 15 12975 880 66%
c -  2.38  9 26 13 2892 27306 5257 64% 16 12975 880 66%
c F  2.41  9 26 13 2978 28017 5797 64% 16 12975 880 66%
c }  2.70  9 26 13 3420 31008 8288 63% 16 12975 880 66%
c [  2.70  9 61 13 3420 31008 8288 78% 34 12975 880 66%
c -  2.76  9 59 14 3420 31507 4802 78% 33 12975 880 66%
c 
c  seconds  reductions     redundant   irredundant
c         MB     restarts         trail      variables
c          level      conflicts       glue       remaining
c 
c -  3.10  9 53 15 3423 36007 5475 78% 30 12975 880 66%
c B  3.11  9 53 15 3423 36018 5486 78% 30 12975 880 66%
c -  3.54  8 58 16 3426 40809 5895 78% 30 12975 880 66%
c W  4.00  8 54 16 3427 45020 9874 79% 29 12975 880 66%
c -  4.10  8 53 17 3427 45909 6847 79% 29 12975 880 66%
c s  4.18  9 52 17 3428 46749 7514 79% 29 12975 880 66%
c w  4.20  9 52 17 3428 46749 7513 79% 29 12975 880 66%
c s  4.23  9 52 17 3428 46749 7505 79% 29 12975 880 66%
c ^  4.23  9 52 17 3428 46749 7505 79% 29 12975 880 66%
c -  4.66  8 48 18 3428 51309 6375 79% 28 12975 880 66%
c O  4.98  8 46 18 3429 55021 9063 79% 27 12975 880 66%
c -  5.14  9 45 19 3431 57012 6595 79% 27 12975 880 66%
c ]  5.74  9 42 19 3435 63009 11885 79% 26 12975 880 66%
c {  5.74  9 26 19 3435 63009 11885 63% 16 12975 880 66%
c -  5.76 11 26 20 3437 63012 7252 63% 16 12975 880 66%
c B  6.08 11 27 20 4189 66023 10089 65% 17 12975 880 66%
c -  6.36 11 28 21 4675 69312 7634 65% 17 12975 880 66%
c -  6.90 11 28 22 5674 75912 7760 65% 17 12975 880 66%
c s  6.98 11 27 22 5674 77808 9094 63% 17 12975 880 66%
c w  7.01 11 27 22 5674 77808 9091 63% 17 12975 880 66%
c 
c  seconds  reductions     redundant   irredundant
c         MB     restarts         trail      variables
c          level      conflicts       glue       remaining
c 
c s  7.05 11 27 22 5674 77808 9059 63% 17 12975 880 66%
c ^  7.05 11 27 22 5674 77808 9059 63% 17 12975 880 66%
c W  7.13 11 27 22 5674 78024 9185 63% 17 12975 880 66%
c -  7.28 11 25 23 5739 82814 7432 58% 16 12975 880 66%
c -  7.59 11 23 24 5832 90014 8220 53% 15 12975 880 66%
c #  7.61 11 23 24 5832 91026 8956 52% 15 12975 880 66%
c -  8.15 11 25 25 7204 97515 9741 55% 15 12975 880 66%
c B  8.47 11 23 25 7483 105027 14315 52% 14 12975 880 66%
c -  8.51 11 23 26 7552 105319 7497 52% 14 12975 880 66%
c -  9.24 11 25 27 9290 113419 10029 55% 15 12975 880 66%
c s  9.62 11 25 27 10069 116630 12282 56% 16 12975 880 66%
c w  9.65 11 25 27 10069 116630 12282 56% 16 12975 880 66%
c s  9.69 11 25 27 10069 116630 12208 56% 16 12975 880 66%
c ^  9.69 11 25 27 10069 116630 12208 56% 16 12975 880 66%
c W 10.02 11 25 27 10458 120030 14802 56% 16 12975 880 66%
c - 10.21  9 25 28 10787 121819 9902 56% 16 12975 880 66%
c } 10.67  9 26 28 11691 127010 14469 57% 16 12975 880 66%
c [ 10.67  9 42 28 11691 127010 14469 79% 26 12975 880 66%
c - 11.02 10 41 29 11691 130519 10385 79% 25 12975 880 66%
c B 11.58 10 40 29 11696 136031 15201 80% 25 12975 880 66%
c 
c  seconds  reductions        redundant   irredundant
c         MB      restarts           trail      variables
c          level       conflicts         glue       remaining
c 
c - 11.98 10 39 30 11698 139521 10532 80% 25 12975 880 66%
c - 13.22 10 37 31 11699 148821 10964 80% 25 12975 880 66%
c W 14.06 10 36 31 11700 153034 14535 80% 24 12975 880 66%
c - 14.85 11 45 32 11700 158422 12435 80% 25 12975 880 66%
c s 15.48 11 51 32 11700 163216 16810 80% 26 12975 880 66%
c s 15.57 11 51 32 11700 163216 16757 80% 26 12975 880 66%
c - 16.21 12 50 33 11701 168322 13112 80% 26 12975 880 66%
c I 16.48 12 49 33 11703 171035 15541 80% 26 12975 880 66%
c - 17.41 13 56 34 11707 178523 12770 79% 30 12975 880 66%
c - 19.05 14 60 35 11714 189023 13454 79% 34 12975 880 66%
c B 19.18 14 60 35 11714 190036 14362 79% 35 12975 880 66%
c - 20.19 13 61 36 11715 199824 13857 79% 33 12975 880 66%
c W 22.05 13 57 36 11722 210038 23013 79% 32 12975 880 66%
c - 22.31 15 57 37 11722 210925 14468 79% 32 12975 880 66%
c - 24.19 15 53 38 11729 222325 14359 79% 31 12975 880 66%
c O 25.43 15 50 38 11730 231039 21867 79% 30 12975 880 66%
c - 25.75 15 50 39 11730 234026 15407 79% 30 12975 880 66%
c - 27.31 15 47 40 11731 246026 13485 79% 29 12975 880 66%
c B 28.19 15 45 40 11732 253042 19215 79% 28 12975 880 66%
c ] 28.39 15 45 40 11732 255012 21053 79% 28 12975 880 66%
c 
c  seconds  reductions        redundant   irredundant
c         MB      restarts           trail      variables
c          level       conflicts         glue       remaining
c 
c { 28.39 15 26 40 11732 255012 21053 57% 16 12975 880 66%
c - 28.59 15 25 41 11942 258326 14136 56% 16 12975 880 66%
c - 29.62 15 26 42 14096 270926 14651 57% 16 12975 880 66%
c F 29.96 15 26 42 14666 276044 18850 57% 16 12975 880 66%
c - 30.39 15 25 43 15343 283826 13588 56% 16 12975 880 66%
c - 30.85 15 23 44 15374 297026 12936 51% 15 12975 880 66%
c B 30.97 15 23 44 15374 300048 14759 50% 14 12975 880 66%
c - 31.44 15 22 45 15949 310527 14020 49% 14 12975 880 66%
c - 31.93 15 20 46 15955 324327 13825 45% 13 12975 880 66%
c W 32.21 15 20 46 15955 325049 14320 45% 13 12975 880 66%
c - 33.11 15 19 47 16335 338428 14668 43% 13 12975 880 66%
c # 33.82 15 19 47 17486 351053 23616 43% 13 12975 880 66%
c - 34.01 15 19 48 17863 352828 16974 44% 13 12975 880 66%
c - 35.12 15 20 49 20230 367529 17328 46% 13 12975 880 66%
c B 35.52 15 19 49 20263 378054 24376 44% 13 12975 880 66%
c - 35.79 15 19 50 20435 382529 15124 43% 13 12975 880 66%
c - 36.63 15 19 51 21617 397833 15591 43% 13 12975 880 66%
c W 37.25 15 19 51 21617 406055 21082 41% 13 12975 880 66%
c - 37.73 15 18 52 22053 413434 15420 41% 12 12975 880 66%
c - 38.82 15 19 53 24118 429334 17799 43% 13 12975 880 66%
c 
c  seconds  reductions        redundant   irredundant
c         MB      restarts           trail      variables
c          level       conflicts         glue       remaining
c 
c F 39.40 15 20 53 25305 435056 22740 44% 13 12975 880 66%
c - 39.73 15 19 54 25311 445534 17172 43% 13 12975 880 66%
c s 39.74 15 19 54 25311 445534 13929 43% 13 12975 880 66%
c w 39.79 15 19 54 25311 445534 13928 43% 13 12975 880 66%
c - 40.66 15 18 55 25727 462035 16562 41% 12 12975 880 66%
c B 40.90 15 19 55 26398 465060 19248 42% 13 12975 880 66%
c - 41.42 15 18 56 26910 478836 17721 41% 12 12975 880 66%
c - 42.22 15 17 57 26937 495939 15757 39% 12 12975 880 66%
c W 42.58 15 17 57 26937 496063 15830 39% 12 12975 880 66%
c } 43.49 15 17 57 28494 511012 27114 40% 12 12975 880 66%
c [ 43.49 15 45 57 28494 511012 27114 79% 28 12975 880 66%
c - 43.58 15 44 58 28494 513340 19090 78% 28 12975 880 66%
c W 45.30 15 46 58 28494 528067 31242 74% 27 12975 880 66%
c - 45.72 17 46 59 28494 531040 21099 75% 27 12975 880 66%
c - 48.27 21 47 60 28501 549042 22569 76% 28 12975 880 66%
c I 50.41 21 46 60 28508 561071 33482 77% 28 12975 880 66%
c - 51.31 22 53 61 28509 567342 23861 76% 31 12975 880 66%
c - 54.79 23 57 62 28517 585942 23099 77% 34 12975 880 66%
c B 56.32 23 57 62 28523 595073 30932 77% 35 12975 880 66%
c - 57.64 18 59 63 28524 604842 24006 78% 35 12975 880 66%
c 
c  seconds  reductions        redundant   irredundant
c         MB      restarts           trail      variables
c          level       conflicts         glue       remaining
c 
c - 60.66 23 57 64 28526 624042 24497 78% 35 12975 880 66%
c W 62.00 23 56 64 28531 630074 29662 78% 35 12975 880 66%
c - 65.17 27 54 65 28538 643542 25059 79% 35 12975 880 66%
c - 70.02 27 52 66 28546 663343 25634 79% 34 12975 880 66%
c O 70.66 27 51 66 28547 666077 27992 79% 34 12975 880 66%
c - 73.69 27 49 67 28555 683443 26423 79% 32 12975 880 66%
c B 77.08 27 46 67 28556 703080 44991 80% 30 12975 880 66%
c - 77.31 27 46 68 28556 703844 27354 80% 30 12975 880 66%
c - 81.94 27 43 69 28557 724545 26774 80% 29 12975 880 66%
c W 85.74 27 41 69 28558 741082 41181 80% 28 12975 880 66%
c - 86.60 27 40 70 28558 745546 27692 80% 28 12975 880 66%
c - 91.65 27 37 71 28558 766846 27412 80% 26 12975 880 66%
c s 91.68 27 37 71 28558 766846 25164 80% 26 12975 880 66%
c w 91.80 27 37 71 28558 766846 25159 80% 26 12975 880 66%
c I 93.81 27 36 71 28558 780083 36135 81% 26 12975 880 66%
c - 95.13 27 44 72 28558 788447 27221 80% 28 12975 880 66%
c - 100.48 36 60 73 28562 810347 28869 80% 35 12975 880 66%
c B 102.98 36 60 73 28567 820084 37592 80% 36 12975 880 66%
c - 105.20 27 57 74 28573 832547 28111 80% 35 12975 880 66%
c - 110.31 28 52 75 28583 855048 28115 80% 32 12975 880 66%
c 
c  seconds   reductions        redundant   irredundant
c          MB      restarts           trail      variables
c           level       conflicts         glue       remaining
c 
c W 111.89 28 50 75 28587 861088 32965 80% 32 12975 880 66%
c - 115.02 28 47 76 28589 877848 28638 80% 30 12975 880 66%
c - 119.71 28 43 77 28596 900950 30056 80% 29 12975 880 66%
c O 120.21 28 43 77 28598 903091 31703 80% 28 12975 880 66%
c - 125.65 31 40 78 28607 924350 30092 80% 27 12975 880 66%
c B 130.47 31 38 78 28618 946093 48527 80% 26 12975 880 66%
c - 131.08 31 38 79 28619 948050 31248 80% 27 12975 880 66%
c - 135.82 31 36 80 28621 972051 30683 80% 26 12975 880 66%
c W 141.29 31 35 80 28621 990095 45491 80% 26 12975 880 66%
c - 143.08 32 35 81 28621 996352 31761 80% 26 12975 880 66%
c - 149.95 32 33 82 28631 1020953 32711 80% 25 12975 880 66%
c ] 150.47 32 33 82 28633 1023013 34521 80% 25 12975 880 66%
c { 150.47 32 17 82 28633 1023013 34521 40% 12 12975 880 66%
c # 151.44 32 17 82 29543 1035096 42271 41% 12 12975 880 66%
c - 152.35 32 18 83 30324 1045853 27985 41% 12 12975 880 66%
c - 153.42 32 16 84 30666 1071055 25231 38% 11 12975 880 66%
c B 153.96 32 16 84 31281 1081098 31849 38% 11 12975 880 66%
c - 154.52 32 16 85 31530 1096556 25399 37% 11 12975 880 66%
c - 155.81 32 15 86 31681 1122356 23935 35% 11 12975 880 66%
c s 155.85 32 15 86 31681 1122356 20806 35% 11 12975 880 66%
c 
c  seconds   reductions         redundant   irredundant
c          MB      restarts            trail      variables
c           level        conflicts         glue       remaining
c 
c w 155.92 32 15 86 31681 1122356 20802 35% 11 12975 880 66%
c W 156.91 32 14 86 31740 1128100 24239 35% 11 12975 880 66%
c - 157.86 32 14 87 31913 1148458 23036 33% 10 12975 880 66%
c - 159.51 32 15 88 34223 1174858 27915 36% 11 12975 880 66%
c F 159.55 32 15 88 34230 1176101 28724 36% 11 12975 880 66%
c - 160.53 32 14 89 34394 1201558 24585 34% 10 12975 880 66%
c B 161.73 32 14 89 35421 1225102 38835 34% 10 12975 880 66%
c - 161.92 32 14 90 35603 1228558 25678 34% 10 12975 880 66%
c - 163.04 32 13 91 35860 1255858 25358 33% 10 12975 880 66%
c W 164.72 32 13 91 36008 1275103 35896 32% 10 12975 880 66%
c - 165.04 32 13 92 36076 1283458 25534 32% 10 12975 880 66%
c - 166.27 32 12 93 36460 1311359 26010 31% 9 12975 880 66%
c # 166.77 32 12 93 36898 1326106 34255 31% 9 12975 880 66%
c - 167.76 32 13 94 38501 1339560 28619 33% 10 12975 880 66%
c - 169.78 32 15 95 41318 1368060 30775 37% 11 12975 880 66%
c B 170.59 32 16 95 42670 1378108 38596 38% 11 12975 880 66%
c - 171.50 32 15 96 43174 1396860 29341 37% 11 12975 880 66%
c - 172.85 32 15 97 43892 1425962 28220 35% 11 12975 880 66%
c W 173.86 32 14 97 43912 1431110 31478 35% 11 12975 880 66%
c - 176.33 32 17 98 47815 1455364 34457 40% 12 12975 880 66%
c 
c  seconds   reductions         redundant   irredundant
c          MB      restarts            trail      variables
c           level        conflicts         glue       remaining
c 
c - 179.39 32 19 99 52217 1485064 35070 44% 13 12975 880 66%
c F 179.40 32 19 99 52217 1485111 35109 44% 13 12975 880 66%
c - 180.89 32 18 100 52764 1515064 30958 41% 12 12975 880 66%
c s 180.92 32 18 100 52764 1515064 23572 41% 12 12975 880 66%
c w 181.02 32 18 100 52764 1515064 23564 41% 12 12975 880 66%
c B 182.08 32 16 100 53011 1540114 38934 38% 12 12975 880 66%
c - 182.38 32 16 101 53192 1545364 27239 38% 12 12975 880 66%
c - 183.94 32 16 102 54205 1575965 31472 37% 11 12975 880 66%
c W 186.47 32 17 102 56454 1596116 47157 39% 12 12975 880 66%
c - 186.82 32 16 103 56472 1606865 34637 38% 11 12975 880 66%
c - 188.68 32 16 104 58151 1638065 33687 38% 11 12975 880 66%
c # 189.34 32 15 104 58366 1653117 43240 37% 11 12975 880 66%
c - 189.94 32 15 105 58498 1669565 31723 36% 11 12975 880 66%
c - 191.67 32 14 106 58865 1701367 29313 34% 10 12975 880 66%
c B 192.17 32 13 106 58947 1711118 35139 34% 10 12975 880 66%
c - 193.73 32 14 107 60824 1733468 32834 35% 11 12975 880 66%
c - 195.37 32 14 108 61758 1765870 31745 35% 10 12975 880 66%
c W 196.65 32 14 108 61838 1770120 34204 34% 10 12975 880 66%
c - 198.91 32 16 109 65172 1798570 36136 38% 11 12975 880 66%
c F 200.37 32 15 109 65672 1830124 54267 36% 11 12975 880 66%
c 
c  seconds    reductions         redundant   irredundant
c          MB       restarts            trail      variables
c           level         conflicts         glue       remaining
c 
c - 200.50 32 15 110 65694 1831570 31281 36% 11 12975 880 66%
c - 202.31 32 15 111 66934 1864870 33039 36% 11 12975 880 66%
c B 203.39 32 14 111 67571 1891125 49012 34% 10 12975 880 66%
c - 203.99 32 15 112 68398 1898472 33700 35% 11 12975 880 66%
c - 206.23 32 15 113 70906 1932372 35635 37% 11 12975 880 66%
c W 210.21 32 18 113 75078 1953126 53546 43% 12 12975 880 66%
c - 211.01 32 18 114 75578 1966574 40380 41% 12 12975 880 66%
c s 211.04 32 18 114 75578 1966574 35257 41% 12 12975 880 66%
c w 211.16 32 18 114 75578 1966574 35249 41% 12 12975 880 66%
c - 214.77 32 19 115 79431 2001076 37075 44% 13 12975 880 66%
c # 215.60 32 19 115 80319 2016131 47551 43% 13 12975 880 66%
c - 217.57 32 19 116 82375 2035882 37816 44% 13 12975 880 66%
c } 217.92 32 18 116 82388 2047013 44451 42% 13 12975 880 66%
c [ 217.92 32 33 116 82388 2047013 44451 80% 25 12975 880 66%
c - 219.77 32 32 117 82398 2070982 36953 73% 24 12975 880 66%
c I 221.19 32 33 117 82403 2080132 45397 74% 24 12975 880 66%
c - 227.06 43 48 118 82407 2106382 46090 74% 31 12975 880 66%
c - 239.48 45 59 119 82422 2142085 48441 76% 39 12975 880 66%
c B 240.49 45 60 119 82422 2145133 51216 76% 39 12975 880 66%
c - 247.58 34 56 120 82437 2178085 44485 77% 38 12975 880 66%
c 
c  seconds    reductions         redundant   irredundant
c          MB       restarts            trail      variables
c           level         conflicts         glue       remaining
c 
c W 257.57 34 52 120 82439 2211135 72774 77% 36 12975 880 66%
c - 258.69 41 51 121 82439 2214385 45595 77% 36 12975 880 66%
c - 271.69 41 47 122 82440 2250987 46451 77% 34 12975 880 66%
c O 280.06 41 45 122 82440 2278140 69475 78% 34 12975 880 66%
c - 280.74 41 43 123 82440 2287888 44852 73% 32 12975 880 66%
c - 285.99 41 41 124 82441 2325090 43804 70% 28 12975 880 66%
c B 289.80 41 40 124 82441 2346141 62533 72% 27 12975 880 66%
c - 293.31 41 51 125 82441 2362591 47361 73% 30 12975 880 66%
c - 305.98 50 69 126 82441 2400392 50758 75% 33 12975 880 66%
c W 312.57 50 74 126 82441 2415144 64848 76% 34 12975 880 66%
c - 321.03 50 67 127 82448 2438492 51643 77% 33 12975 880 66%
c s 321.14 50 67 127 82448 2438492 46688 77% 33 12975 880 66%
c w 321.58 50 67 127 82448 2438492 46682 77% 33 12975 880 66%
c - 331.65 50 57 128 82466 2476895 49232 78% 31 12975 880 66%
c I 333.98 50 55 128 82470 2485147 56323 79% 31 12975 880 66%
c - 339.80 55 65 129 82477 2515595 50967 78% 35 12975 880 66%
c - 350.60 55 61 130 82494 2554595 50052 79% 35 12975 880 66%
c B 351.05 55 60 130 82495 2556150 51468 79% 35 12975 880 66%
c - 359.48 55 57 131 82504 2593896 49600 79% 35 12975 880 66%
c W 373.00 55 53 131 82506 2628154 80002 80% 35 12975 880 66%
c 
c  seconds    reductions         redundant   irredundant
c          MB       restarts            trail      variables
c           level         conflicts         glue       remaining
c 
c - 375.34 55 53 132 82510 2633500 51116 80% 35 12975 880 66%
c - 391.47 55 47 133 82528 2673402 49937 80% 33 12975 880 66%
c O 403.44 55 45 133 82535 2701155 71721 80% 33 12975 880 66%
c - 406.75 55 43 134 82538 2713604 51415 80% 32 12975 880 66%
c - 421.18 55 38 135 82557 2754107 49292 81% 29 12975 880 66%
c B 427.61 55 37 135 82565 2775156 67480 81% 28 12975 880 66%
c - 434.91 55 36 136 82567 2794910 50671 81% 27 12975 880 66%
c - 450.39 55 34 137 82568 2836011 54748 81% 26 12975 880 66%
c W 457.04 55 34 137 82568 2850158 67737 81% 26 12975 880 66%
c - 468.05 55 33 138 82568 2877411 54976 81% 26 12975 880 66%
c - 483.65 55 32 139 82583 2919111 54355 81% 26 12975 880 66%
c I 485.94 55 32 139 82584 2926159 60570 81% 26 12975 880 66%
c - 494.45 55 38 140 82599 2961112 55226 81% 27 12975 880 66%
c s 494.59 55 38 140 82599 2961112 54906 81% 27 12975 880 66%
c w 495.00 55 38 140 82599 2961112 54893 81% 27 12975 880 66%
c B 508.27 55 37 140 82614 3003160 91234 80% 27 12975 880 66%
c - 508.44 55 37 141 82614 3003413 54616 80% 27 12975 880 66%
c - 518.01 55 40 142 82630 3046013 52150 80% 27 12975 880 66%
c W 532.83 55 38 142 82631 3081164 81855 79% 27 12975 880 66%
c - 535.45 55 38 143 82631 3088915 54035 79% 27 12975 880 66%
c 
c  seconds    reductions         redundant   irredundant
c          MB       restarts            trail      variables
c           level         conflicts         glue       remaining
c 
c - 550.17 55 36 144 82652 3132118 52553 80% 27 12975 880 66%
c O 559.69 55 36 144 82662 3160166 77390 80% 27 12975 880 66%
c - 560.83 55 33 145 82663 3175619 52611 72% 25 12975 880 66%
c - 569.11 55 36 146 82684 3219419 52091 73% 26 12975 880 66%
c B 574.29 55 37 146 82692 3240167 70161 74% 27 12975 880 66%
c - 580.97 55 38 147 82694 3263521 55259 75% 27 12975 880 66%
c - 596.68 55 39 148 82695 3307922 58429 77% 28 12975 880 66%
c ] 599.91 55 40 148 82695 3318528 67690 77% 28 12975 880 66%
c ? 599.91 55 40 148 82695 3318528 67690 77% 28 12975 880 66%
c 
c --- [ result ] -------------------------------------------------------------
c 
c UNKNOWN
c 
c --- [ run-time profiling ] -------------------------------------------------
c 
c process time taken by individual solving procedures
c (percentage relative to process time for solving)
c 
c       593.20   98.88% search
c       494.21   82.38% stable
c        80.63   13.44% unstable
c        18.35    3.06% walk
c         6.70    1.12% simplify
c         3.26    0.54% probe
c         1.37    0.23% vivify
c         0.54    0.09% subsume
c         0.50    0.08% ternary
c         0.10    0.02% elim
c         0.01    0.00% parse
c         0.00    0.00% lucky
c   =================================
c       599.90  100.00% solve
c 
c last line shows process time for solving
c (percentage relative to total process time)
c 
c --- [ statistics ] ---------------------------------------------------------
c 
c chronological:            528021        15.91 %  of conflicts
c conflicts:               3318528      5531.80    per second
c decisions:               5903439      9840.70    per second
c eliminated:                  330        24.79 %  of all variables
c fixed:                       121         9.09 %  of all variables
c learned:                 3278350        98.79 %  per conflict
c learned_lits:          215504797       100.00 %  learned literals
c minimized:                     0         0.00 %  learned literals
c shrunken:               86890788        40.32 %  learned literals
c minishrunken:           17613884         8.17 %  learned literals
c propagations:          326507938         0.54 M  per second
c reduced:                 2511593        75.68 %  per conflict
c rephased:                     80     41481.60    interval
c restarts:                  82695        40.13    interval
c stabilizing:                   6        58.87 %  of conflicts
c subsumed:                 696536        10.55 %  of all clauses
c strengthened:              11943         0.18 %  of all clauses
c vivified:                    149         0.00 %  of all clauses
c walked:                       25    132741.12    interval
c weakened:                   8604         2.33    average size
c 
c seconds are measured in process time for solving
c 
c --- [ resources ] ----------------------------------------------------------
c 
c total process time since initialization:       599.91    seconds
c total real time since initialization:          600.00    seconds
c maximum resident set size of process:           55.81    MB
c 
c --- [ shutting down ] ------------------------------------------------------
c 
c exit 0
